c t wmc
c file mc2023_track2_083.cnf
p cnf 195 899
1 0
14 15 0
27 28 29 0
40 41 42 43 0
53 54 55 56 57 0
66 67 68 69 70 71 0
79 80 81 82 83 84 85 0
92 93 94 95 96 97 98 99 0
105 106 107 108 109 110 111 112 113 0
118 119 120 121 122 123 124 125 126 127 0
131 132 133 134 135 136 137 138 139 140 141 0
144 145 146 147 148 149 150 151 152 153 154 155 0
157 158 159 160 161 162 163 164 165 166 167 168 169 0
170 171 172 173 174 175 176 177 178 179 180 181 182 0
183 184 185 186 187 188 189 190 191 192 193 194 195 0
-66 -118 0
-67 -119 0
-68 -120 0
-69 -121 0
-70 -122 0
-71 -123 0
-72 -124 0
-73 -125 0
-74 -126 0
-75 -127 0
-76 -128 0
-77 -129 0
-78 -130 0
-53 -92 0
-54 -93 0
-55 -94 0
-56 -95 0
-57 -96 0
-58 -97 0
-59 -98 0
-60 -99 0
-61 -100 0
-62 -101 0
-63 -102 0
-64 -103 0
-65 -104 0
-79 -118 0
-80 -119 0
-81 -120 0
-82 -121 0
-83 -122 0
-84 -123 0
-85 -124 0
-86 -125 0
-87 -126 0
-88 -127 0
-89 -128 0
-90 -129 0
-91 -130 0
-105 -170 0
-106 -171 0
-107 -172 0
-108 -173 0
-109 -174 0
-110 -175 0
-111 -176 0
-112 -177 0
-113 -178 0
-114 -179 0
-115 -180 0
-116 -181 0
-117 -182 0
-92 -157 0
-93 -158 0
-94 -159 0
-95 -160 0
-96 -161 0
-97 -162 0
-98 -163 0
-99 -164 0
-100 -165 0
-101 -166 0
-102 -167 0
-103 -168 0
-104 -169 0
-27 -105 0
-28 -106 0
-29 -107 0
-30 -108 0
-31 -109 0
-32 -110 0
-33 -111 0
-34 -112 0
-35 -113 0
-36 -114 0
-37 -115 0
-38 -116 0
-39 -117 0
-1 -183 0
-2 -184 0
-3 -185 0
-4 -186 0
-5 -187 0
-6 -188 0
-7 -189 0
-8 -190 0
-9 -191 0
-10 -192 0
-11 -193 0
-12 -194 0
-13 -195 0
-40 -144 0
-41 -145 0
-42 -146 0
-43 -147 0
-44 -148 0
-45 -149 0
-46 -150 0
-47 -151 0
-48 -152 0
-49 -153 0
-50 -154 0
-51 -155 0
-52 -156 0
-1 -92 0
-2 -93 0
-3 -94 0
-4 -95 0
-5 -96 0
-6 -97 0
-7 -98 0
-8 -99 0
-9 -100 0
-10 -101 0
-11 -102 0
-12 -103 0
-13 -104 0
-105 -118 0
-106 -119 0
-107 -120 0
-108 -121 0
-109 -122 0
-110 -123 0
-111 -124 0
-112 -125 0
-113 -126 0
-114 -127 0
-115 -128 0
-116 -129 0
-117 -130 0
-53 -157 0
-54 -158 0
-55 -159 0
-56 -160 0
-57 -161 0
-58 -162 0
-59 -163 0
-60 -164 0
-61 -165 0
-62 -166 0
-63 -167 0
-64 -168 0
-65 -169 0
-27 -157 0
-28 -158 0
-29 -159 0
-30 -160 0
-31 -161 0
-32 -162 0
-33 -163 0
-34 -164 0
-35 -165 0
-36 -166 0
-37 -167 0
-38 -168 0
-39 -169 0
-144 -183 0
-145 -184 0
-146 -185 0
-147 -186 0
-148 -187 0
-149 -188 0
-150 -189 0
-151 -190 0
-152 -191 0
-153 -192 0
-154 -193 0
-155 -194 0
-156 -195 0
-40 -92 0
-41 -93 0
-42 -94 0
-43 -95 0
-44 -96 0
-45 -97 0
-46 -98 0
-47 -99 0
-48 -100 0
-49 -101 0
-50 -102 0
-51 -103 0
-52 -104 0
-27 -66 0
-28 -67 0
-29 -68 0
-30 -69 0
-31 -70 0
-32 -71 0
-33 -72 0
-34 -73 0
-35 -74 0
-36 -75 0
-37 -76 0
-38 -77 0
-39 -78 0
-14 -144 0
-15 -145 0
-16 -146 0
-17 -147 0
-18 -148 0
-19 -149 0
-20 -150 0
-21 -151 0
-22 -152 0
-23 -153 0
-24 -154 0
-25 -155 0
-26 -156 0
-92 -144 0
-93 -145 0
-94 -146 0
-95 -147 0
-96 -148 0
-97 -149 0
-98 -150 0
-99 -151 0
-100 -152 0
-101 -153 0
-102 -154 0
-103 -155 0
-104 -156 0
-40 -183 0
-41 -184 0
-42 -185 0
-43 -186 0
-44 -187 0
-45 -188 0
-46 -189 0
-47 -190 0
-48 -191 0
-49 -192 0
-50 -193 0
-51 -194 0
-52 -195 0
-79 -183 0
-80 -184 0
-81 -185 0
-82 -186 0
-83 -187 0
-84 -188 0
-85 -189 0
-86 -190 0
-87 -191 0
-88 -192 0
-89 -193 0
-90 -194 0
-91 -195 0
-14 -27 0
-15 -28 0
-16 -29 0
-17 -30 0
-18 -31 0
-19 -32 0
-20 -33 0
-21 -34 0
-22 -35 0
-23 -36 0
-24 -37 0
-25 -38 0
-26 -39 0
-105 -183 0
-106 -184 0
-107 -185 0
-108 -186 0
-109 -187 0
-110 -188 0
-111 -189 0
-112 -190 0
-113 -191 0
-114 -192 0
-115 -193 0
-116 -194 0
-117 -195 0
-79 -92 0
-80 -93 0
-81 -94 0
-82 -95 0
-83 -96 0
-84 -97 0
-85 -98 0
-86 -99 0
-87 -100 0
-88 -101 0
-89 -102 0
-90 -103 0
-91 -104 0
-53 -118 0
-54 -119 0
-55 -120 0
-56 -121 0
-57 -122 0
-58 -123 0
-59 -124 0
-60 -125 0
-61 -126 0
-62 -127 0
-63 -128 0
-64 -129 0
-65 -130 0
-157 -170 0
-158 -171 0
-159 -172 0
-160 -173 0
-161 -174 0
-162 -175 0
-163 -176 0
-164 -177 0
-165 -178 0
-166 -179 0
-167 -180 0
-168 -181 0
-169 -182 0
-40 -131 0
-41 -132 0
-42 -133 0
-43 -134 0
-44 -135 0
-45 -136 0
-46 -137 0
-47 -138 0
-48 -139 0
-49 -140 0
-50 -141 0
-51 -142 0
-52 -143 0
-79 -131 0
-80 -132 0
-81 -133 0
-82 -134 0
-83 -135 0
-84 -136 0
-85 -137 0
-86 -138 0
-87 -139 0
-88 -140 0
-89 -141 0
-90 -142 0
-91 -143 0
-66 -157 0
-67 -158 0
-68 -159 0
-69 -160 0
-70 -161 0
-71 -162 0
-72 -163 0
-73 -164 0
-74 -165 0
-75 -166 0
-76 -167 0
-77 -168 0
-78 -169 0
-105 -131 0
-106 -132 0
-107 -133 0
-108 -134 0
-109 -135 0
-110 -136 0
-111 -137 0
-112 -138 0
-113 -139 0
-114 -140 0
-115 -141 0
-116 -142 0
-117 -143 0
-14 -183 0
-15 -184 0
-16 -185 0
-17 -186 0
-18 -187 0
-19 -188 0
-20 -189 0
-21 -190 0
-22 -191 0
-23 -192 0
-24 -193 0
-25 -194 0
-26 -195 0
-118 -144 0
-119 -145 0
-120 -146 0
-121 -147 0
-122 -148 0
-123 -149 0
-124 -150 0
-125 -151 0
-126 -152 0
-127 -153 0
-128 -154 0
-129 -155 0
-130 -156 0
-92 -131 0
-93 -132 0
-94 -133 0
-95 -134 0
-96 -135 0
-97 -136 0
-98 -137 0
-99 -138 0
-100 -139 0
-101 -140 0
-102 -141 0
-103 -142 0
-104 -143 0
-14 -131 0
-15 -132 0
-16 -133 0
-17 -134 0
-18 -135 0
-19 -136 0
-20 -137 0
-21 -138 0
-22 -139 0
-23 -140 0
-24 -141 0
-25 -142 0
-26 -143 0
-144 -170 0
-145 -171 0
-146 -172 0
-147 -173 0
-148 -174 0
-149 -175 0
-150 -176 0
-151 -177 0
-152 -178 0
-153 -179 0
-154 -180 0
-155 -181 0
-156 -182 0
-53 -131 0
-54 -132 0
-55 -133 0
-56 -134 0
-57 -135 0
-58 -136 0
-59 -137 0
-60 -138 0
-61 -139 0
-62 -140 0
-63 -141 0
-64 -142 0
-65 -143 0
-27 -79 0
-28 -80 0
-29 -81 0
-30 -82 0
-31 -83 0
-32 -84 0
-33 -85 0
-34 -86 0
-35 -87 0
-36 -88 0
-37 -89 0
-38 -90 0
-39 -91 0
-118 -183 0
-119 -184 0
-120 -185 0
-121 -186 0
-122 -187 0
-123 -188 0
-124 -189 0
-125 -190 0
-126 -191 0
-127 -192 0
-128 -193 0
-129 -194 0
-130 -195 0
-157 -183 0
-158 -184 0
-159 -185 0
-160 -186 0
-161 -187 0
-162 -188 0
-163 -189 0
-164 -190 0
-165 -191 0
-166 -192 0
-167 -193 0
-168 -194 0
-169 -195 0
-66 -144 0
-67 -145 0
-68 -146 0
-69 -147 0
-70 -148 0
-71 -149 0
-72 -150 0
-73 -151 0
-74 -152 0
-75 -153 0
-76 -154 0
-77 -155 0
-78 -156 0
-79 -144 0
-80 -145 0
-81 -146 0
-82 -147 0
-83 -148 0
-84 -149 0
-85 -150 0
-86 -151 0
-87 -152 0
-88 -153 0
-89 -154 0
-90 -155 0
-91 -156 0
-105 -144 0
-106 -145 0
-107 -146 0
-108 -147 0
-109 -148 0
-110 -149 0
-111 -150 0
-112 -151 0
-113 -152 0
-114 -153 0
-115 -154 0
-116 -155 0
-117 -156 0
-131 -170 0
-132 -171 0
-133 -172 0
-134 -173 0
-135 -174 0
-136 -175 0
-137 -176 0
-138 -177 0
-139 -178 0
-140 -179 0
-141 -180 0
-142 -181 0
-143 -182 0
-53 -183 0
-54 -184 0
-55 -185 0
-56 -186 0
-57 -187 0
-58 -188 0
-59 -189 0
-60 -190 0
-61 -191 0
-62 -192 0
-63 -193 0
-64 -194 0
-65 -195 0
-1 -157 0
-2 -158 0
-3 -159 0
-4 -160 0
-5 -161 0
-6 -162 0
-7 -163 0
-8 -164 0
-9 -165 0
-10 -166 0
-11 -167 0
-12 -168 0
-13 -169 0
-118 -131 0
-119 -132 0
-120 -133 0
-121 -134 0
-122 -135 0
-123 -136 0
-124 -137 0
-125 -138 0
-126 -139 0
-127 -140 0
-128 -141 0
-129 -142 0
-130 -143 0
-40 -118 0
-41 -119 0
-42 -120 0
-43 -121 0
-44 -122 0
-45 -123 0
-46 -124 0
-47 -125 0
-48 -126 0
-49 -127 0
-50 -128 0
-51 -129 0
-52 -130 0
-27 -40 0
-28 -41 0
-29 -42 0
-30 -43 0
-31 -44 0
-32 -45 0
-33 -46 0
-34 -47 0
-35 -48 0
-36 -49 0
-37 -50 0
-38 -51 0
-39 -52 0
-14 -118 0
-15 -119 0
-16 -120 0
-17 -121 0
-18 -122 0
-19 -123 0
-20 -124 0
-21 -125 0
-22 -126 0
-23 -127 0
-24 -128 0
-25 -129 0
-26 -130 0
-79 -157 0
-80 -158 0
-81 -159 0
-82 -160 0
-83 -161 0
-84 -162 0
-85 -163 0
-86 -164 0
-87 -165 0
-88 -166 0
-89 -167 0
-90 -168 0
-91 -169 0
-1 -105 0
-2 -106 0
-3 -107 0
-4 -108 0
-5 -109 0
-6 -110 0
-7 -111 0
-8 -112 0
-9 -113 0
-10 -114 0
-11 -115 0
-12 -116 0
-13 -117 0
-144 -157 0
-145 -158 0
-146 -159 0
-147 -160 0
-148 -161 0
-149 -162 0
-150 -163 0
-151 -164 0
-152 -165 0
-153 -166 0
-154 -167 0
-155 -168 0
-156 -169 0
-27 -183 0
-28 -184 0
-29 -185 0
-30 -186 0
-31 -187 0
-32 -188 0
-33 -189 0
-34 -190 0
-35 -191 0
-36 -192 0
-37 -193 0
-38 -194 0
-39 -195 0
-53 -144 0
-54 -145 0
-55 -146 0
-56 -147 0
-57 -148 0
-58 -149 0
-59 -150 0
-60 -151 0
-61 -152 0
-62 -153 0
-63 -154 0
-64 -155 0
-65 -156 0
-92 -118 0
-93 -119 0
-94 -120 0
-95 -121 0
-96 -122 0
-97 -123 0
-98 -124 0
-99 -125 0
-100 -126 0
-101 -127 0
-102 -128 0
-103 -129 0
-104 -130 0
-27 -92 0
-28 -93 0
-29 -94 0
-30 -95 0
-31 -96 0
-32 -97 0
-33 -98 0
-34 -99 0
-35 -100 0
-36 -101 0
-37 -102 0
-38 -103 0
-39 -104 0
-66 -131 0
-67 -132 0
-68 -133 0
-69 -134 0
-70 -135 0
-71 -136 0
-72 -137 0
-73 -138 0
-74 -139 0
-75 -140 0
-76 -141 0
-77 -142 0
-78 -143 0
-40 -157 0
-41 -158 0
-42 -159 0
-43 -160 0
-44 -161 0
-45 -162 0
-46 -163 0
-47 -164 0
-48 -165 0
-49 -166 0
-50 -167 0
-51 -168 0
-52 -169 0
-14 -157 0
-15 -158 0
-16 -159 0
-17 -160 0
-18 -161 0
-19 -162 0
-20 -163 0
-21 -164 0
-22 -165 0
-23 -166 0
-24 -167 0
-25 -168 0
-26 -169 0
-105 -157 0
-106 -158 0
-107 -159 0
-108 -160 0
-109 -161 0
-110 -162 0
-111 -163 0
-112 -164 0
-113 -165 0
-114 -166 0
-115 -167 0
-116 -168 0
-117 -169 0
-170 -183 0
-171 -184 0
-172 -185 0
-173 -186 0
-174 -187 0
-175 -188 0
-176 -189 0
-177 -190 0
-178 -191 0
-179 -192 0
-180 -193 0
-181 -194 0
-182 -195 0
-66 -92 0
-67 -93 0
-68 -94 0
-69 -95 0
-70 -96 0
-71 -97 0
-72 -98 0
-73 -99 0
-74 -100 0
-75 -101 0
-76 -102 0
-77 -103 0
-78 -104 0
-92 -170 0
-93 -171 0
-94 -172 0
-95 -173 0
-96 -174 0
-97 -175 0
-98 -176 0
-99 -177 0
-100 -178 0
-101 -179 0
-102 -180 0
-103 -181 0
-104 -182 0
-66 -183 0
-67 -184 0
-68 -185 0
-69 -186 0
-70 -187 0
-71 -188 0
-72 -189 0
-73 -190 0
-74 -191 0
-75 -192 0
-76 -193 0
-77 -194 0
-78 -195 0
-14 -105 0
-15 -106 0
-16 -107 0
-17 -108 0
-18 -109 0
-19 -110 0
-20 -111 0
-21 -112 0
-22 -113 0
-23 -114 0
-24 -115 0
-25 -116 0
-26 -117 0
-131 -183 0
-132 -184 0
-133 -185 0
-134 -186 0
-135 -187 0
-136 -188 0
-137 -189 0
-138 -190 0
-139 -191 0
-140 -192 0
-141 -193 0
-142 -194 0
-143 -195 0
-14 -92 0
-15 -93 0
-16 -94 0
-17 -95 0
-18 -96 0
-19 -97 0
-20 -98 0
-21 -99 0
-22 -100 0
-23 -101 0
-24 -102 0
-25 -103 0
-26 -104 0
-92 -105 0
-93 -106 0
-94 -107 0
-95 -108 0
-96 -109 0
-97 -110 0
-98 -111 0
-99 -112 0
-100 -113 0
-101 -114 0
-102 -115 0
-103 -116 0
-104 -117 0
-27 -53 0
-28 -54 0
-29 -55 0
-30 -56 0
-31 -57 0
-32 -58 0
-33 -59 0
-34 -60 0
-35 -61 0
-36 -62 0
-37 -63 0
-38 -64 0
-39 -65 0
-118 -157 0
-119 -158 0
-120 -159 0
-121 -160 0
-122 -161 0
-123 -162 0
-124 -163 0
-125 -164 0
-126 -165 0
-127 -166 0
-128 -167 0
-129 -168 0
-130 -169 0
c p weight 1 0.98634631 0
c p weight -1 0.01365369 0
c p weight 2 0.03133824 0
c p weight -2 0.96866176 0
c p weight 3 0.00689954 0
c p weight -3 0.99310046 0
c p weight 4 0.00391648 0
c p weight -4 0.99608352 0
c p weight 5 0.02181455 0
c p weight -5 0.97818545 0
c p weight 6 0.01559596 0
c p weight -6 0.98440404 0
c p weight 7 0.01005272 0
c p weight -7 0.98994728 0
c p weight 8 0.01869443 0
c p weight -8 0.98130557 0
c p weight 9 0.0459733 0
c p weight -9 0.9540267 0
c p weight 10 0.01382158 0
c p weight -10 0.98617842 0
c p weight 11 0.02677601 0
c p weight -11 0.97322399 0
c p weight 12 0.03832194 0
c p weight -12 0.96167806 0
c p weight 13 0.01402117 0
c p weight -13 0.98597883 0
c p weight 14 0.99294977 0
c p weight -14 0.00705023 0
c p weight 15 0.02351179 0
c p weight -15 0.97648821 0
c p weight 16 0.00759676 0
c p weight -16 0.99240324 0
c p weight 17 0.04474703 0
c p weight -17 0.95525297 0
c p weight 18 0.04015494 0
c p weight -18 0.95984506 0
c p weight 19 0.03380503 0
c p weight -19 0.96619497 0
c p weight 20 0.00099131 0
c p weight -20 0.99900869 0
c p weight 21 0.01202953 0
c p weight -21 0.98797047 0
c p weight 22 0.01440861 0
c p weight -22 0.98559139 0
c p weight 23 0.04868548 0
c p weight -23 0.95131452 0
c p weight 24 0.04215792 0
c p weight -24 0.95784208 0
c p weight 25 0.04763774 0
c p weight -25 0.95236226 0
c p weight 26 0.02601167 0
c p weight -26 0.97398833 0
c p weight 27 0.02432852 0
c p weight -27 0.97567148 0
c p weight 28 0.97806863 0
c p weight -28 0.02193137 0
c p weight 29 0.01029036 0
c p weight -29 0.98970964 0
c p weight 30 0.00239585 0
c p weight -30 0.99760415 0
c p weight 31 0.02506078 0
c p weight -31 0.97493922 0
c p weight 32 0.04122968 0
c p weight -32 0.95877032 0
c p weight 33 0.00961262 0
c p weight -33 0.99038738 0
c p weight 34 0.01577454 0
c p weight -34 0.98422546 0
c p weight 35 0.03772495 0
c p weight -35 0.96227505 0
c p weight 36 0.01530782 0
c p weight -36 0.98469218 0
c p weight 37 0.0405158 0
c p weight -37 0.9594842 0
c p weight 38 0.01346521 0
c p weight -38 0.98653479 0
c p weight 39 0.03790864 0
c p weight -39 0.96209136 0
c p weight 40 0.045269 0
c p weight -40 0.954731 0
c p weight 41 0.04398239 0
c p weight -41 0.95601761 0
c p weight 42 0.99930516 0
c p weight -42 0.00069484 0
c p weight 43 0.01995465 0
c p weight -43 0.98004535 0
c p weight 44 0.03636168 0
c p weight -44 0.96363832 0
c p weight 45 0.04207114 0
c p weight -45 0.95792886 0
c p weight 46 0.04041773 0
c p weight -46 0.95958227 0
c p weight 47 0.01974468 0
c p weight -47 0.98025532 0
c p weight 48 0.02256576 0
c p weight -48 0.97743424 0
c p weight 49 0.00733395 0
c p weight -49 0.99266605 0
c p weight 50 0.04885478 0
c p weight -50 0.95114522 0
c p weight 51 0.04377973 0
c p weight -51 0.95622027 0
c p weight 52 0.00645928 0
c p weight -52 0.99354072 0
c p weight 53 0.02745285 0
c p weight -53 0.97254715 0
c p weight 54 0.04432461 0
c p weight -54 0.95567539 0
c p weight 55 0.99401145 0
c p weight -55 0.00598855 0
c p weight 56 0.02945178 0
c p weight -56 0.97054822 0
c p weight 57 0.02409946 0
c p weight -57 0.97590054 0
c p weight 58 0.00409485 0
c p weight -58 0.99590515 0
c p weight 59 0.01967917 0
c p weight -59 0.98032083 0
c p weight 60 0.00560805 0
c p weight -60 0.99439195 0
c p weight 61 0.04041932 0
c p weight -61 0.95958068 0
c p weight 62 0.01834262 0
c p weight -62 0.98165738 0
c p weight 63 0.01101038 0
c p weight -63 0.98898962 0
c p weight 64 0.03779289 0
c p weight -64 0.96220711 0
c p weight 65 0.03680753 0
c p weight -65 0.96319247 0
c p weight 66 0.04062698 0
c p weight -66 0.95937302 0
c p weight 67 0.03891611 0
c p weight -67 0.96108389 0
c p weight 68 0.97781123 0
c p weight -68 0.02218877 0
c p weight 69 0.00692702 0
c p weight -69 0.99307298 0
c p weight 70 0.00586163 0
c p weight -70 0.99413837 0
c p weight 71 0.01052907 0
c p weight -71 0.98947093 0
c p weight 72 0.02991452 0
c p weight -72 0.97008548 0
c p weight 73 0.00216314 0
c p weight -73 0.99783686 0
c p weight 74 0.02523328 0
c p weight -74 0.97476672 0
c p weight 75 0.01173248 0
c p weight -75 0.98826752 0
c p weight 76 0.01718991 0
c p weight -76 0.98281009 0
c p weight 77 0.04340458 0
c p weight -77 0.95659542 0
c p weight 78 0.03492538 0
c p weight -78 0.96507462 0
c p weight 79 0.04140688 0
c p weight -79 0.95859312 0
c p weight 80 0.01108135 0
c p weight -80 0.98891865 0
c p weight 81 0.98015896 0
c p weight -81 0.01984104 0
c p weight 82 0.04883348 0
c p weight -82 0.95116652 0
c p weight 83 0.02894976 0
c p weight -83 0.97105024 0
c p weight 84 0.04644259 0
c p weight -84 0.95355741 0
c p weight 85 0.03457976 0
c p weight -85 0.96542024 0
c p weight 86 0.0004188 0
c p weight -86 0.9995812 0
c p weight 87 0.02117409 0
c p weight -87 0.97882591 0
c p weight 88 0.02975501 0
c p weight -88 0.97024499 0
c p weight 89 0.04766962 0
c p weight -89 0.95233038 0
c p weight 90 0.0258035 0
c p weight -90 0.9741965 0
c p weight 91 0.04758928 0
c p weight -91 0.95241072 0
c p weight 92 0.02426777 0
c p weight -92 0.97573223 0
c p weight 93 0.04194457 0
c p weight -93 0.95805543 0
c p weight 94 0.01931833 0
c p weight -94 0.98068167 0
c p weight 95 0.01537248 0
c p weight -95 0.98462752 0
c p weight 96 0.01233859 0
c p weight -96 0.98766141 0
c p weight 97 0.00683839 0
c p weight -97 0.99316161 0
c p weight 98 0.01122973 0
c p weight -98 0.98877027 0
c p weight 99 0.96284069 0
c p weight -99 0.03715931 0
c p weight 100 0.04895685 0
c p weight -100 0.95104315 0
c p weight 101 0.01400348 0
c p weight -101 0.98599652 0
c p weight 102 0.98342456 0
c p weight -102 0.01657544 0
c p weight 103 0.98083566 0
c p weight -103 0.01916434 0
c p weight 104 0.97569503 0
c p weight -104 0.02430497 0
c p weight 105 0.03010215 0
c p weight -105 0.96989785 0
c p weight 106 0.00467008 0
c p weight -106 0.99532992 0
c p weight 107 0.95015179 0
c p weight -107 0.04984821 0
c p weight 108 0.02512722 0
c p weight -108 0.97487278 0
c p weight 109 0.03250031 0
c p weight -109 0.96749969 0
c p weight 110 0.00600106 0
c p weight -110 0.99399894 0
c p weight 111 0.00469159 0
c p weight -111 0.99530841 0
c p weight 112 0.04955262 0
c p weight -112 0.95044738 0
c p weight 113 0.00751469 0
c p weight -113 0.99248531 0
c p weight 114 0.03199748 0
c p weight -114 0.96800252 0
c p weight 115 0.00442627 0
c p weight -115 0.99557373 0
c p weight 116 0.02903886 0
c p weight -116 0.97096114 0
c p weight 117 0.04599166 0
c p weight -117 0.95400834 0
c p weight 118 0.04945825 0
c p weight -118 0.95054175 0
c p weight 119 0.97028307 0
c p weight -119 0.02971693 0
c p weight 120 0.01205412 0
c p weight -120 0.98794588 0
c p weight 121 0.03396785 0
c p weight -121 0.96603215 0
c p weight 122 0.01116365 0
c p weight -122 0.98883635 0
c p weight 123 0.02308057 0
c p weight -123 0.97691943 0
c p weight 124 0.04775755 0
c p weight -124 0.95224245 0
c p weight 125 0.00232332 0
c p weight -125 0.99767668 0
c p weight 126 0.04761604 0
c p weight -126 0.95238396 0
c p weight 127 0.01200775 0
c p weight -127 0.98799225 0
c p weight 128 0.04707281 0
c p weight -128 0.95292719 0
c p weight 129 0.04473178 0
c p weight -129 0.95526822 0
c p weight 130 0.02262145 0
c p weight -130 0.97737855 0
c p weight 131 0.04220439 0
c p weight -131 0.95779561 0
c p weight 132 0.01485792 0
c p weight -132 0.98514208 0
c p weight 133 0.02239584 0
c p weight -133 0.97760416 0
c p weight 134 0.02523012 0
c p weight -134 0.97476988 0
c p weight 135 0.01685707 0
c p weight -135 0.98314293 0
c p weight 136 0.03693411 0
c p weight -136 0.96306589 0
c p weight 137 0.97961061 0
c p weight -137 0.02038939 0
c p weight 138 0.04364083 0
c p weight -138 0.95635917 0
c p weight 139 0.01758545 0
c p weight -139 0.98241455 0
c p weight 140 0.03399525 0
c p weight -140 0.96600475 0
c p weight 141 0.01871143 0
c p weight -141 0.98128857 0
c p weight 142 0.00065487 0
c p weight -142 0.99934513 0
c p weight 143 0.03067552 0
c p weight -143 0.96932448 0
c p weight 144 0.01126905 0
c p weight -144 0.98873095 0
c p weight 145 0.00492723 0
c p weight -145 0.99507277 0
c p weight 146 0.01486417 0
c p weight -146 0.98513583 0
c p weight 147 0.00523949 0
c p weight -147 0.99476051 0
c p weight 148 0.97905646 0
c p weight -148 0.02094354 0
c p weight 149 0.03342027 0
c p weight -149 0.96657973 0
c p weight 150 0.02083323 0
c p weight -150 0.97916677 0
c p weight 151 0.03834716 0
c p weight -151 0.96165284 0
c p weight 152 0.03815663 0
c p weight -152 0.96184337 0
c p weight 153 0.03730865 0
c p weight -153 0.96269135 0
c p weight 154 0.02965469 0
c p weight -154 0.97034531 0
c p weight 155 0.00306769 0
c p weight -155 0.99693231 0
c p weight 156 0.04594116 0
c p weight -156 0.95405884 0
c p weight 157 0.04656401 0
c p weight -157 0.95343599 0
c p weight 158 0.02335987 0
c p weight -158 0.97664013 0
c p weight 159 0.01937381 0
c p weight -159 0.98062619 0
c p weight 160 0.00604498 0
c p weight -160 0.99395502 0
c p weight 161 0.01275363 0
c p weight -161 0.98724637 0
c p weight 162 0.03585517 0
c p weight -162 0.96414483 0
c p weight 163 0.9765236 0
c p weight -163 0.0234764 0
c p weight 164 0.02459487 0
c p weight -164 0.97540513 0
c p weight 165 0.98204585 0
c p weight -165 0.01795415 0
c p weight 166 0.9998482 0
c p weight -166 0.0001518 0
c p weight 167 0.04270385 0
c p weight -167 0.95729615 0
c p weight 168 0.01378588 0
c p weight -168 0.98621412 0
c p weight 169 0.03024693 0
c p weight -169 0.96975307 0
c p weight 170 0.99067281 0
c p weight -170 0.00932719 0
c p weight 171 0.00026427 0
c p weight -171 0.99973573 0
c p weight 172 0.00608257 0
c p weight -172 0.99391743 0
c p weight 173 0.00429554 0
c p weight -173 0.99570446 0
c p weight 174 0.01566307 0
c p weight -174 0.98433693 0
c p weight 175 0.02326628 0
c p weight -175 0.97673372 0
c p weight 176 0.03084633 0
c p weight -176 0.96915367 0
c p weight 177 0.00459307 0
c p weight -177 0.99540693 0
c p weight 178 0.03623694 0
c p weight -178 0.96376306 0
c p weight 179 0.02210754 0
c p weight -179 0.97789246 0
c p weight 180 0.01369718 0
c p weight -180 0.98630282 0
c p weight 181 0.04681934 0
c p weight -181 0.95318066 0
c p weight 182 0.04087737 0
c p weight -182 0.95912263 0
c p weight 183 0.03074319 0
c p weight -183 0.96925681 0
c p weight 184 0.0346731 0
c p weight -184 0.9653269 0
c p weight 185 0.02534817 0
c p weight -185 0.97465183 0
c p weight 186 0.99127251 0
c p weight -186 0.00872749 0
c p weight 187 0.00243091 0
c p weight -187 0.99756909 0
c p weight 188 0.98378124 0
c p weight -188 0.01621876 0
c p weight 189 0.02941956 0
c p weight -189 0.97058044 0
c p weight 190 0.99903323 0
c p weight -190 0.00096677 0
c p weight 191 0.00577571 0
c p weight -191 0.99422429 0
c p weight 192 0.00892559 0
c p weight -192 0.99107441 0
c p weight 193 0.04029778 0
c p weight -193 0.95970222 0
c p weight 194 0.04482031 0
c p weight -194 0.95517969 0
c p weight 195 0.04946869 0
c p weight -195 0.95053131 0
